1 4
1 6
1 7
1 9
1 11
1 14
1 15
1 18
2 4
2 11
2 14
2 15
2 16
2 17
2 19
3 5
3 8
3 9
3 13
3 15
3 17
3 18
4 7
4 9
4 11
4 12
4 18
5 6
5 9
5 13
5 15
5 17
6 8
6 9
6 10
6 11
6 13
6 14
6 16
6 17
6 18
7 9
7 17
7 18
7 19
8 9
8 10
8 11
8 17
8 18
8 19
9 10
9 14
9 15
9 16
9 18
10 11
10 18
11 13
11 14
11 15
11 17
11 18
11 19
12 15
12 17
12 18
12 19
13 15
13 16
13 18
14 16
14 18
15 16
15 17
16 17
16 18
16 19
17 18
18 19
